units real
atom_style full
boundary p p p
read_data data.methane

pair_style lj/cut 12.0
pair_modify mix arithmetic
pair_coeff 1 1 0.1094 3.5
pair_coeff 2 2 0.0157 2.5
pair_coeff 1 2 0.04 3.0

bond_style harmonic
bond_coeff 1 340.0 1.09

angle_style harmonic
angle_coeff 1 33.0 109.5

special_bonds lj/coul 0.0 0.0 0.5
thermo_style custom step pe ke etotal temp
thermo 1
run 0